Maximize
  0.0226380659550873 Z_627_0_0 + 0.7132001344405845 Z_627_0_1
   + 0.00188197826490432 Z_627_0_2 + 0.0408233885253982 Z_627_0_3
   + 0.1214564328140255 Z_627_0_4 + 0.00297225685285267 Z_154_1_0
   + 6.1975317845379082e-04 Z_154_1_1 + 0.5320058842949804 Z_154_1_2
   + 0.00311650492090985 Z_154_1_3 + 0.3612856007528031 Z_154_1_4
   + 0.00297225685285267 Z_154_0_0 + 6.1975317845379082e-04 Z_154_0_1
   + 0.5320058842949804 Z_154_0_2 + 0.00311650492090985 Z_154_0_3
   + 0.3612856007528031 Z_154_0_4 + [
   0.0260374471182398 Z_627_0_0 * Z_154_1_0
   + 0.0260374471182398 Z_627_0_1 * Z_154_1_1
   + 0.0260374471182398 Z_627_0_2 * Z_154_1_2
   + 0.0260374471182398 Z_627_0_3 * Z_154_1_3
   + 0.0260374471182398 Z_627_0_4 * Z_154_1_4 ] / 2 
Subject To
 constraint1_6270: Z_627_0_0 + Z_627_0_1 + Z_627_0_2 + Z_627_0_3
   + Z_627_0_4 <= 1
 constraint1_1541: Z_154_1_0 + Z_154_1_1 + Z_154_1_2 + Z_154_1_3
   + Z_154_1_4 <= 1
 constraint1_1540: Z_154_0_0 + Z_154_0_1 + Z_154_0_2 + Z_154_0_3
   + Z_154_0_4 <= 1
 constraint2_6270: Z_627_0_0 <= 1
 constraint2_6271: Z_627_0_1 <= 1
 constraint2_6272: Z_627_0_2 <= 1
 constraint2_6273: Z_627_0_3 <= 1
 constraint2_1540: Z_154_1_0 + Z_154_0_0 <= 1
 constraint2_1541: Z_154_1_1 + Z_154_0_1 <= 1
 constraint2_1542: Z_154_1_2 + Z_154_0_2 <= 1
 constraint2_1543: Z_154_1_3 + Z_154_0_3 <= 1
Bounds
Binaries
 Z_627_0_0 Z_627_0_1 Z_627_0_2 Z_627_0_3 Z_627_0_4 Z_154_1_0 Z_154_1_1
 Z_154_1_2 Z_154_1_3 Z_154_1_4 Z_154_0_0 Z_154_0_1 Z_154_0_2 Z_154_0_3
 Z_154_0_4
End
